211 5
10 10 10 10 10 

0 0 0 0 0 0 1 2 
0 0 0 0 0 0 4 3 4 5 7 
4 0 1 0 0 0 5 12 11 10 9 6 
3 0 2 0 0 0 3 11 10 6 
7 0 6 0 0 0 2 9 8 
3 0 1 0 0 0 1 8 
2 0 2 0 0 0 1 9 
4 0 2 0 0 0 1 13 
8 0 3 0 0 0 1 13 
1 0 1 0 0 0 1 13 
4 0 2 0 0 0 1 13 
7 0 5 0 0 0 1 13 
0 0 0 0 0 0 2 14 36 
0 0 0 0 0 0 8 15 16 17 19 20 21 23 28 
1 1 0 0 1 0 3 33 25 18 
3 4 0 0 2 0 5 33 32 27 25 22 
7 2 0 0 2 0 6 34 33 32 31 30 25 
3 3 0 0 3 0 4 34 32 24 22 
9 1 0 0 1 0 5 34 32 31 30 26 
5 4 0 0 4 0 4 32 31 30 25 
7 3 0 0 3 0 3 33 26 22 
3 2 0 0 4 0 3 31 30 29 
9 4 0 0 2 0 3 32 30 29 
1 1 0 0 4 0 2 30 26 
10 4 0 0 2 0 1 26 
6 1 0 0 4 0 2 29 108 
2 2 0 0 1 0 1 29 
9 3 0 0 4 0 1 29 
10 1 0 0 2 0 1 35 
9 2 0 0 2 0 1 35 
7 4 0 0 2 0 1 35 
6 4 0 0 1 0 1 35 
2 2 0 0 4 0 1 35 
9 2 0 0 2 0 1 35 
0 0 0 0 0 0 1 72 
0 0 0 0 0 0 6 37 38 39 40 41 42 
2 1 0 0 0 0 3 46 43 156 
1 3 0 0 0 0 2 46 43 
2 3 0 0 0 0 2 44 43 
7 3 0 0 0 0 2 46 45 
10 5 0 0 0 0 1 44 
9 2 0 0 0 0 1 43 
6 2 0 0 0 0 1 45 
10 2 0 0 0 0 1 45 
3 3 0 0 0 0 1 47 
2 1 0 0 0 0 1 47 
0 0 0 0 0 0 2 48 60 
0 0 0 0 0 0 4 49 51 52 58 
8 0 1 0 0 0 5 57 54 53 50 189 
7 0 4 0 0 0 2 56 55 
4 0 3 0 0 0 2 54 53 
2 0 2 0 0 0 1 53 
8 0 5 0 0 0 1 59 
6 0 2 0 0 0 1 59 
9 0 1 0 0 0 1 59 
2 0 2 0 0 0 1 59 
4 0 2 0 0 0 1 59 
4 0 3 0 0 0 1 59 
0 0 0 0 0 0 1 72 
0 0 0 0 0 0 7 61 62 63 64 65 69 70 
1 0 0 0 1 0 2 68 66 
10 0 0 0 2 0 2 68 67 
4 0 0 0 3 0 1 66 
2 0 0 0 2 0 1 66 
8 0 0 0 3 0 1 66 
8 0 0 0 6 0 2 67 192 
3 0 0 0 2 0 1 71 
7 0 0 0 4 0 1 71 
3 0 0 0 1 0 1 71 
9 0 0 0 1 0 1 71 
0 0 0 0 0 0 1 72 
0 0 0 0 0 0 4 73 95 117 129 
0 0 0 0 0 0 9 74 75 76 77 78 79 80 83 85 
5 0 1 0 1 0 5 93 92 87 84 81 
8 0 3 0 4 0 5 93 92 87 84 81 
10 0 2 0 4 0 4 93 92 91 82 
4 0 3 0 1 0 4 92 87 84 81 
4 0 3 0 2 0 5 93 92 90 87 86 
5 0 1 0 3 0 4 93 92 87 84 
1 0 2 0 2 0 4 92 90 87 84 
4 0 6 0 3 0 3 91 90 86 
3 0 6 0 2 0 2 90 84 
6 0 1 0 2 0 2 90 86 
2 0 3 0 2 0 1 86 
5 0 2 0 2 0 1 86 
4 0 2 0 3 0 2 89 88 
6 0 1 0 2 0 1 91 
9 0 4 0 2 0 1 94 
4 0 3 0 3 0 2 94 152 
1 0 1 0 5 0 1 94 
4 0 2 0 3 0 1 94 
4 0 1 0 3 0 1 94 
3 0 3 0 1 0 1 94 
0 0 0 0 0 0 1 211 
0 0 0 0 0 0 9 96 97 98 100 101 104 105 106 115 
1 1 1 0 0 0 5 114 113 112 111 103 
3 6 2 0 0 0 4 112 110 99 173 
3 3 3 0 0 0 2 110 102 
4 2 1 0 0 0 4 113 111 109 107 
3 1 3 0 0 0 2 110 103 
8 5 2 0 0 0 3 112 111 107 
8 1 5 0 0 0 1 103 
4 3 3 0 0 0 2 109 107 
1 1 2 0 0 0 2 109 107 
4 2 3 0 0 0 2 114 110 
9 2 1 0 0 0 1 107 
3 1 3 0 0 0 1 108 
4 5 1 0 0 0 1 116 
10 1 2 0 0 0 1 116 
1 5 2 0 0 0 1 116 
4 2 5 0 0 0 1 116 
7 3 2 0 0 0 1 116 
3 2 3 0 0 0 1 116 
6 2 2 0 0 0 1 116 
8 2 4 0 0 0 1 116 
0 0 0 0 0 0 1 211 
0 0 0 0 0 0 4 118 119 121 122 
4 1 0 0 0 0 5 127 125 123 120 173 
1 4 0 0 0 0 3 125 124 123 
5 3 0 0 0 0 1 124 
9 3 0 0 0 0 1 126 
7 1 0 0 0 0 1 123 
4 2 0 0 0 0 1 128 
2 3 0 0 0 0 1 128 
6 2 0 0 0 0 1 128 
3 4 0 0 0 0 1 128 
9 2 0 0 0 0 1 128 
0 0 0 0 0 0 5 151 163 175 187 199 
0 0 0 0 0 0 9 130 131 133 134 136 139 147 148 149 
9 1 0 0 0 1 4 146 143 132 177 
7 3 0 0 0 1 4 145 143 142 138 
5 2 0 0 0 1 2 141 135 
5 3 0 0 0 6 3 144 141 140 
3 3 0 0 0 4 2 141 137 
6 1 0 0 0 5 1 137 
1 2 0 0 0 3 1 138 
1 5 0 0 0 1 1 140 
9 2 0 0 0 2 1 140 
7 3 0 0 0 1 1 142 
6 4 0 0 0 1 1 150 
9 4 0 0 0 3 1 150 
9 2 0 0 0 3 1 150 
6 4 0 0 0 4 1 150 
10 3 0 0 0 2 1 150 
7 1 0 0 0 1 1 150 
3 2 0 0 0 1 1 150 
7 2 0 0 0 3 1 150 
9 1 0 0 0 1 1 150 
5 2 0 0 0 6 1 150 
0 0 0 0 0 0 1 211 
0 0 0 0 0 0 2 152 153 
5 1 0 0 0 0 3 156 155 154 
8 3 0 0 0 0 3 156 155 154 
1 3 0 0 0 0 5 161 160 159 158 157 
5 3 0 0 0 0 5 161 160 159 158 157 
9 5 0 0 0 0 6 161 160 159 158 157 171 
8 2 0 0 0 0 1 162 
7 4 0 0 0 0 1 162 
8 1 0 0 0 0 1 162 
1 1 0 0 0 0 1 162 
2 2 0 0 0 0 1 162 
0 0 0 0 0 0 1 211 
0 0 0 0 0 0 4 164 165 166 167 
4 0 1 0 0 0 2 169 168 
5 0 2 0 0 0 2 169 168 
1 0 1 0 0 0 2 169 168 
1 0 2 0 0 0 2 169 168 
2 0 5 0 0 0 5 173 172 171 170 181 
8 0 2 0 0 0 4 173 172 171 170 
6 0 5 0 0 0 1 174 
4 0 3 0 0 0 1 174 
8 0 3 0 0 0 1 174 
10 0 1 0 0 0 1 174 
0 0 0 0 0 0 1 211 
0 0 0 0 0 0 4 176 177 178 180 
9 0 0 0 0 1 4 185 184 181 179 
1 0 0 0 0 3 2 181 179 
8 0 0 0 0 3 2 183 181 
5 0 0 0 0 3 1 182 
6 0 0 0 0 1 2 181 188 
7 0 0 0 0 3 1 186 
1 0 0 0 0 3 1 186 
10 0 0 0 0 3 1 186 
9 0 0 0 0 3 1 186 
10 0 0 0 0 2 1 186 
0 0 0 0 0 0 1 211 
0 0 0 0 0 0 5 188 189 190 191 194 
6 0 0 0 1 0 3 197 193 192 
3 0 0 0 1 0 3 197 193 192 
1 0 0 0 2 0 2 197 195 
1 0 0 0 3 0 2 196 195 
6 0 0 0 3 0 1 196 
1 0 0 0 4 0 1 195 
2 0 0 0 2 0 1 195 
3 0 0 0 4 0 2 198 201 
3 0 0 0 4 0 1 198 
9 0 0 0 1 0 1 198 
0 0 0 0 0 0 1 211 
0 0 0 0 0 0 5 200 201 203 208 209 
5 0 0 0 1 0 3 207 204 202 
7 0 0 0 3 0 3 207 206 205 
3 0 0 0 2 0 2 206 205 
9 0 0 0 4 0 2 206 205 
8 0 0 0 1 0 1 205 
10 0 0 0 2 0 1 210 
5 0 0 0 4 0 1 210 
2 0 0 0 4 0 1 210 
6 0 0 0 2 0 1 210 
10 0 0 0 2 0 1 210 
0 0 0 0 0 0 1 211 
0 0 0 0 0 0 0 
